20J7M/DAT/20J7MULL-12.dat
20 7
48.5863 48.5863
48.5848 48.5848
42.1907 42.1907
22.7541 22.7541
41.1327 41.1327
48.9837 48.9837
3.628 3.628
13.5935 13.5935
32.6676 32.6676
40.5726 40.5726
47.7541 47.7541
42.2362 42.2362
38.0429 38.0429
33.6159 33.6159
32.7967 32.7967
14.5738 14.5738
16.36 16.36
44.4622 44.4622
39.1871 39.1871
40.1254 40.1254
98.8355