20J7M/SOL/20J7MULL-12.sol
solution status: optimal solution found
objective value:                     69.8871857142857
x#1#4                                               1 	(obj:0)
x#2#6                                               1 	(obj:0)
x#3#3                                               1 	(obj:0)
x#4#2                               0.510214459160724 	(obj:0)
x#4#3                                0.10692108891082 	(obj:0)
x#4#5                               0.382864451928456 	(obj:0)
x#5#1                               0.203608731556731 	(obj:0)
x#5#4                               0.796391268443269 	(obj:0)
x#6#4                                               1 	(obj:0)
x#7#4                                               1 	(obj:0)
x#8#1                               0.886571701385506 	(obj:0)
x#8#5                               0.113428298614494 	(obj:0)
x#9#2                                               1 	(obj:0)
x#10#1                                              1 	(obj:0)
x#11#7                                              1 	(obj:0)
x#12#7                                              1 	(obj:0)
x#13#3                                              1 	(obj:0)
x#14#1                              0.251478551701994 	(obj:0)
x#14#7                              0.748521448298006 	(obj:0)
x#15#4                                              1 	(obj:0)
x#16#5                                              1 	(obj:0)
x#17#5                              0.289885902466034 	(obj:0)
x#17#6                              0.710114097533966 	(obj:0)
x#18#6                                              1 	(obj:0)
x#19#7                                              1 	(obj:0)
x#20#4                                              1 	(obj:0)
z                                    69.8871857142857 	(obj:1)
